50

100 21 301
99 15 347
99 40 305
97 27 354
97 22 308
96 48 294
96 39 329
96 1 343
93 3 323
93 25 323
91 3 275
84 42 271
83 1 344
81 20 333
79 31 254
78 17 278
77 6 326
74 30 280
71 10 332
67 12 307
66 23 235
63 9 299
62 2 283
61 5 337
61 9 352
61 18 270
59 23 280
59 3 280
59 27 253
58 1 354
57 21 337
56 24 318
54 18 298
54 12 359
53 2 192
53 25 351
51 21 162
50 20 201
49 9 344
48 24 238
45 15 164
45 13 357
45 1 222
40 1 347
40 1 319
39 3 177
39 6 256
34 13 149
32 7 209
30 6 315
